PROBLEM NAME: eil51_n8
KNAPSACK DATA TYPE: uncorrelated
DIMENSION: 8
NUMBER OF ITEMS: 70
CAPACITY OF KNAPSACK: 35049
MIN SPEED: 0.1
MAX SPEED: 1
RENTING RATIO: 87.18
EDGE_WEIGHT_TYPE: CEIL_2D
NODE_COORD_SECTION	(INDEX, X, Y):
1	52	64
2	57	58
3	16	57
4	27	68
5	58	48
6	10	17
7	39	10
8	48	28
ITEMS SECTION	(INDEX, PROFIT, WEIGHT, ASSIGNED NODE NUMBER):
1	995	517	4
2	988	595	4
3	985	917	4
4	971	41	4
5	954	798	4
6	939	994	4
7	925	252	4
8	925	721	4
9	903	776	4
10	899	139	4
11	898	902	3
12	891	532	3
13	887	709	3
14	867	970	3
15	832	220	3
16	832	322	3
17	829	586	3
18	821	356	3
19	814	507	3
20	808	906	3
21	801	949	6
22	727	724	6
23	716	727	6
24	710	416	6
25	695	647	6
26	685	572	6
27	646	330	6
28	632	343	6
29	630	727	6
30	603	348	6
31	603	384	7
32	602	326	7
33	572	300	7
34	548	340	7
35	539	953	7
36	537	551	7
37	536	213	7
38	518	149	7
39	514	512	7
40	468	137	7
41	450	624	8
42	445	858	8
43	434	925	8
44	431	493	8
45	406	386	8
46	383	736	8
47	383	700	8
48	377	652	8
49	348	380	8
50	343	581	8
51	308	4	5
52	307	782	5
53	281	930	5
54	272	208	5
55	244	607	5
56	239	364	5
57	234	984	5
58	218	428	5
59	212	811	5
60	192	116	5
61	165	338	2
62	147	471	2
63	138	148	2
64	133	239	2
65	122	512	2
66	116	909	2
67	111	453	2
68	106	893	2
69	91	851	2
70	78	763	2
